objective value:                                  -13
t_n_1                                               1 	(obj:-1)
t_n_4                                               1 	(obj:-1)
t_n_338                                             1 	(obj:-1)
t_n_516                                             1 	(obj:-1)
t_n_559                                             1 	(obj:-1)
t_n_569                                             1 	(obj:-1)
t_n_594                                             1 	(obj:-1)
t_n_703                                             1 	(obj:-1)
t_n_718                                             1 	(obj:-1)
t_n_764                                             1 	(obj:-1)
t_n_830                                             1 	(obj:-1)
t_n_961                                             1 	(obj:-1)
t_n_984                                             1 	(obj:-1)
